c WARNING: for repeatability, setting FPU to use double precision
d VARIABLES            72356        
d CONSTRAINTS          289855       
c ============================[ Problem Statistics ]=============================
c |                                                                             |
c |  Number of variables:         72356                                         |
c |  Number of clauses:          289855                                         |
c |  Parse time:                   0.03 s                                       |
c |                                                                             |
c ============================[ Search Statistics ]==============================
c | Conflicts |          ORIGINAL         |          LEARNT          | Progress |
c |           |    Vars  Clauses Literals |    Limit  Clauses Lit/Cl |          |
c ===============================================================================
c |       100 |   53084   240225   587953 |    88082      100     39 | 26.635 % |
c |       250 |   53084   240225   587953 |    96890      250     50 | 26.635 % |
c |       475 |   53084   240225   587953 |   106579      475     73 | 26.635 % |
c |       812 |   53084   240225   587953 |   117237      812     94 | 26.635 % |
c |      1318 |   53084   240225   587953 |   128961     1318     91 | 26.635 % |
c |      2077 |   53084   240225   587953 |   141857     2077    106 | 26.635 % |
c |      3216 |   53084   240225   587953 |   156043     3216    111 | 26.635 % |
c |      4924 |   53084   240225   587953 |   171647     4924    117 | 26.635 % |
c |      7486 |   53084   240225   587953 |   188812     7486    136 | 26.635 % |
c |     11330 |   53084   240225   587953 |   207693    11330    130 | 26.635 % |
c |     17096 |   53084   240225   587953 |   228463    17096    121 | 26.635 % |
c |     25745 |   53084   240225   587953 |   251309    25745    111 | 26.635 % |
c |     38719 |   53084   240225   587953 |   276440    38719    117 | 26.635 % |
c |     58180 |   53084   240225   587953 |   304084    58180    125 | 26.635 % |
c |     87372 |   53084   240225   587953 |   334493    87372    118 | 26.635 % |
c |    131161 |   53084   240225   587953 |   367942   131161    113 | 26.635 % |
c |    196845 |   53084   240225   587953 |   404736   196845    105 | 26.635 % |
c |    295371 |   53084   240225   587953 |   445210   295371    104 | 26.635 % |
c |    443160 |   53084   240225   587953 |   489731   443160    101 | 26.635 % |
c |    664843 |   53084   240225   587953 |   538704   177759     89 | 26.635 % |
c |    997368 |   53084   240225   587953 |   592575   510284     86 | 26.635 % |
c ===============================================================================
c restarts              : 2684
c conflicts             : 1396046        (1191 /sec)
c decisions             : 2627583        (0.00 % random) (2241 /sec)
c propagations          : 1431776692     (1221255 /sec)
c conflict literals     : 123822399      (41.78 % deleted)
d RESTARTS             2684
d FAILURES             1396046      
d NODES                2627583      
d BACKTRACKS           2627583      
d PROPAGATIONS         1431776692   
d NOGOODSIZE           88.70 
d MEMORY               462.00 
d TIME                 1172.38 

s UNSATISFIABLE
